NAME : gr229
TYPE : OP
DIMENSION : 229
COST_LIMIT : 67301
ROUTE_NODES : 155
ROUTE_SCORE : 6297
ROUTE_COST : 67298
NODE_SEQUENCE_SECTION
1
2
13
14
15
22
23
24
84
85
86
89
90
91
94
100
99
98
97
104
105
107
108
109
110
124
125
166
169
170
174
177
179
181
180
183
184
50
188
189
190
191
193
192
194
195
196
198
197
187
186
185
182
178
175
176
173
165
164
172
163
162
161
160
159
156
157
158
201
203
211
210
209
216
215
214
213
208
207
206
212
204
150
155
154
151
149
148
147
146
145
144
143
141
140
142
139
137
136
135
134
133
131
132
138
129
130
128
127
126
111
114
117
116
120
121
122
119
118
115
112
106
101
102
103
74
75
76
77
79
88
80
87
81
82
83
57
59
60
61
63
66
65
64
62
58
54
53
19
11
10
8
7
5
4
-1
DEPOT_SECTION
1
-1
EOF
